files/upTests/tuple-of-setsn2/0003.eprime
language ESSENCE' 1.0

find a_tuple1: int(0..9)
find c_tuple1: int(0..9)
find c_tuple2_SetOccurrence: matrix indexed by [int(3..4)] of bool
find c_tuple3_tuple1_SetExplicitVarSize_tuple1:
        matrix indexed by [int(1..2)] of bool
find c_tuple3_tuple1_SetExplicitVarSize_tuple2:
        matrix indexed by [int(1..2)] of int(3..4)
find c_tuple3_tuple2_tuple1: int(3..4)
find c_tuple3_tuple2_tuple2: bool
such that
    c_tuple3_tuple1_SetExplicitVarSize_tuple1[1]
    /\
    c_tuple3_tuple1_SetExplicitVarSize_tuple1[2]
    ->
    c_tuple3_tuple1_SetExplicitVarSize_tuple2[1]
    <
    c_tuple3_tuple1_SetExplicitVarSize_tuple2[2],
    c_tuple3_tuple1_SetExplicitVarSize_tuple1[1]
    <=
    c_tuple3_tuple1_SetExplicitVarSize_tuple1[2],
    c_tuple2_SetOccurrence[3] = true,
    c_tuple2_SetOccurrence[4] = true,
    c_tuple1 = a_tuple1,
    c_tuple3_tuple2_tuple1 = 3,
    c_tuple3_tuple2_tuple2 = true,
    exists v__0 : int(1..2)
        . c_tuple3_tuple1_SetExplicitVarSize_tuple1[v__0]
          /\
          c_tuple3_tuple1_SetExplicitVarSize_tuple2[v__0] = 3,
    exists v__0 : int(1..2)
        . c_tuple3_tuple1_SetExplicitVarSize_tuple1[v__0]
          /\
          c_tuple3_tuple1_SetExplicitVarSize_tuple2[v__0] = 4,
    forAll v__0 : int(1..2)
        . c_tuple3_tuple1_SetExplicitVarSize_tuple1[v__0]
          ->
          3 = c_tuple3_tuple1_SetExplicitVarSize_tuple2[v__0]
          \/
          4 = c_tuple3_tuple1_SetExplicitVarSize_tuple2[v__0],
    forAll v__0 : int(3..4) . c_tuple2_SetOccurrence[v__0] -> 3 = v__0 \/ 4 = v__0
