files/upTests/tuple-of-setsn2/0003.eprime.solution
language ESSENCE' 1.0
$ minion Nodes: 2
$ minion TotalTime: 0.001169
$ Savile Row TotalTime: 0.275
letting a_tuple1 be 0
letting c_tuple1 be 0
letting c_tuple3_tuple2_tuple1 be 3
letting c_tuple3_tuple2_tuple2 be true
letting c_tuple3_tuple1_SetExplicitVarSize_tuple1 be [true, true;int(1..2)]
letting c_tuple3_tuple1_SetExplicitVarSize_tuple2 be [3, 4;int(1..2)]
letting c_tuple2_SetOccurrence be [true, true;int(3..4)]
